
   7    4
  10   10   10   10

   0   0   0   0   0   2 2 3 
   9  10  10  10  10   2 6 4 
   1  10  10  10  10   2 6 4 
   6  10  10  10  10   1 5 
   6  10  10  10  10   1 7
  10  10  10  10  10   1 7
   0   0   0   0   0   0 
